[1, 2, 3, 4, 9, 8, 7, 5, 6, 17, 11, 12, 12, 14, 15, 15, 14, 25, 20, 18, 24, 17, 19, 25, 26, 24, 26, 40, 32, 35, 35, 33, 39, 37, 36, 35, 37, 37, 39, 39, 38, 36, 41, 43, 40, 43, 42, 39, 48, 51, 49, 52, 53, 52, 55, 55, 57, 61, 60, 60, 61, 63, 62, 65, 64, 64, 66, 67, 73, 71, 71, 72, 72, 76, 74, 76, 77, 82, 81, 80, 79, 82, 83, 83, 83, 84, 87, 82, 89, 90, 94, 93, 93, 91, 94, 95, 80, 101, 105, 108, 106, 104, 99, 107, 105, 108, 106, 109, 107, 108, 110, 112, 113, 115, 114, 116, 117, 118, 119, 120, 121, 122, 123, 122, 126, 128, 129, 127, 124, 123, 130, 134, 135, 134, 137, 138, 135, 136, 137, 141, 140, 139, 141, 137, 150, 146, 149, 148, 147, 150, 151, 152, 155, 158, 160, 157, 156, 157, 156, 154, 181, 164, 168, 167, 172, 171, 165, 173, 164, 163, 166, 169, 170, 175, 177, 181, 182, 180, 176, 180, 181, 182, 186, 183, 187, 185, 186, 190, 190, 190, 192, 191, 193, 194, 197, 197, 196, 198, 200, 201, 199, 202, 202, 201, 200, 212, 212, 207, 210, 208, 209, 211, 210, 207, 216, 214, 217, 216, 211, 213, 218, 222, 229, 224, 226, 224, 224, 229, 230, 230, 231, 232, 236, 235, 236, 236, 236, 234, 239, 240, 242, 244, 242, 244, 245, 246, 247, 250, 247, 249, 248, 257, 254, 256, 253, 255, 252, 257, 259, 260, 261, 262, 263, 263, 265, 265, 267, 268, 269, 270, 272, 272, 273, 274, 276, 277, 277, 278, 279, 265]
[1, 2, 3, 4, 8, 18, 19, 48, 50, 51, 51, 56, 61, 62, 65, 66, 86, 88, 100, 103, 106, 106, 107, 107, 107, 108, 116, 119, 121, 121, 125, 126, 128, 139, 149, 149, 150, 157, 166, 167, 171, 172, 181, 181, 182, 186, 208, 209, 209, 210, 210, 211, 211, 212, 213, 215, 215, 216, 221, 223, 223, 223, 225, 241, 241, 248, 255, 256, 256, 278]
